53
656563
S          1.27110       -1.05240        2.20730
S          0.01280       -3.55460       -1.09410
O          1.98510       -0.15860       -0.20800
O          5.68980        1.22770        0.90650
O          4.52630        2.04160       -1.65540
O          3.63930        0.86840        2.90350
O          0.84460        0.23530       -2.67480
O         -1.07230        2.19490       -0.04610
O          0.40670       -2.58180        0.15590
O          1.44050       -4.24190       -1.47690
O         -0.38900       -2.72320       -2.21320
O         -0.86100       -4.60230       -0.59960
N         -4.73050       -0.44570        1.10210
N         -0.67250       -1.78620        0.54520
C          4.28990        1.32800        0.63830
C          4.02760        0.99240       -0.83020
C          3.55970        0.35820        1.57290
C          2.52720        0.82850       -1.08630
C          2.09000        0.21030        1.16690
C          2.24450        0.37570       -2.51520
C         -0.35900       -1.01390        1.53790
C         -1.28170       -0.01770        2.21870
C         -2.63320        0.01630        1.56710
C         -3.01800        0.85120        0.49930
C         -4.35090        0.54150        0.22070
C         -3.68600       -0.77020        1.92570
C         -2.37760        1.84390       -0.26860
C         -5.07830        1.17760       -0.79160
C         -3.09260        2.48830       -1.28460
C         -4.42210        2.15880       -1.54030
C         -0.53020        3.20990       -0.88290
H          4.00670        2.36640        0.85040
H          4.56440        0.07360       -1.09800
H          4.07780       -0.60970        1.55090
H          2.00460        1.77550       -0.91720
H          1.55230        1.15160        1.33390
H          2.69210       -0.60430       -2.70990
H          2.61660        1.08690       -3.25860
H          5.82150        1.43600        1.84740
H          5.47190        2.14550       -1.45370
H          3.15820        0.25030        3.47990
H         -0.82340        0.97650        2.21460
H         -1.38870       -0.31340        3.27030
H          0.45130        1.12030       -2.60710
H         -3.79990       -1.53150        2.68480
H         -5.64730       -0.86940        1.13520
H         -6.11330        0.92160       -0.99150
H         -2.67300        3.26070       -1.92070
H         -4.95980        2.67090       -2.33440
H          0.50000        3.38510       -0.55970
H         -0.49730        2.90570       -1.93310
H         -1.05580        4.16220       -0.74920
H          1.95690       -4.59460       -0.71460
