49
172929915
S          6.00100       -1.09500        0.00000
S          8.59910        0.40500        0.00000
O          4.26900       -1.09500        0.00000
O          4.26900       -4.09500        0.00000
O          2.53690       -3.09500        0.00000
O          6.00100       -3.09500        0.00000
O          2.53690       -0.09500        0.00000
O          7.73310       -0.09500        0.00000
O          3.40300        3.40500        0.00000
O          8.09910        1.27100        0.00000
O          9.46510        0.90500        0.00000
O          9.09910       -0.46100        0.00000
N          6.86710        0.40500        0.00000
C          3.40300       -2.59500        0.00000
C          4.26900       -3.09500        0.00000
C          3.40300       -1.59500        0.00000
C          5.13500       -2.59500        0.00000
C          5.13500       -1.59500        0.00000
C          2.53690       -1.09500        0.00000
C          6.00100       -0.09500        0.00000
C          5.13500        0.40500        0.00000
C          5.13500        1.40500        0.00000
C          4.26900        1.90500        0.00000
C          6.00100        1.90500        0.00000
C          4.26900        2.90500        0.00000
C          6.00100        2.90500        0.00000
C          5.13500        3.40500        0.00000
C          3.40300        4.40500        0.00000
H          3.73210       -3.40500        0.00000
H          3.40300       -3.21500        0.00000
H          3.40300       -0.97500        0.00000
H          5.13500       -3.21500        0.00000
H          5.13500       -0.97500        0.00000
H          1.92640       -0.98730        0.00000
H          2.32490       -1.67760        0.00000
H          3.73210       -4.40500        0.00000
H          2.00000       -2.78500        0.00000
H          6.53800       -2.78500        0.00000
H          2.00000        0.21500        0.00000
H          4.52440        0.51270        0.00000
H          4.92300       -0.17760        0.00000
H          3.73210        1.59500        0.00000
H          6.53800        1.59500        0.00000
H          6.53800        3.21500        0.00000
H          5.13500        4.02500        0.00000
H          4.02300        4.40500        0.00000
H          3.40300        5.02500        0.00000
H          2.78300        4.40500        0.00000
H          8.40910        1.80800        0.00000
