49
656506
S          1.10390       -0.91900        2.27420
S          0.25290       -3.80630       -0.83240
O          1.61340       -0.08160       -0.21220
O          5.04080        1.99070        0.70880
O          3.71270        2.41820       -1.86670
O          3.11580        1.42140        2.78060
O          0.38200       -0.05650       -2.66650
O          0.48820       -2.70200        0.34620
O          1.77310       -4.26470       -1.20220
O         -0.29640       -3.12910       -1.99230
O         -0.42390       -4.95280       -0.25530
N         -4.56250       -0.06830        0.18250
N         -0.70700       -2.07710        0.70870
C          3.64050        1.83130        0.47360
C          3.41610        1.35730       -0.96280
C          3.10400        0.81640        1.48800
C          1.96260        0.92200       -1.16620
C          1.67540        0.39180        1.13300
C          1.73910        0.33180       -2.55500
C         -0.51710       -1.20080        1.64470
C         -1.58690       -0.33430        2.28200
C         -2.69280        0.01940        1.31720
C         -2.71650        1.14810        0.48260
C         -3.91450        1.07380       -0.23120
C         -3.81760       -0.71670        1.13070
C         -1.85280        2.23600        0.24660
C         -4.29340        2.03690       -1.17320
C         -2.21860        3.20690       -0.69280
C         -3.42070        3.10700       -1.39060
H          3.18560        2.81800        0.62670
H          4.09910        0.52800       -1.18620
H          3.78100       -0.04780        1.51350
H          1.28090        1.77460       -1.04300
H          0.99150        1.23690        1.25900
H          1.96810        1.04670       -3.35080
H          2.34670       -0.56680       -2.70170
H          5.14980        2.28160        1.63040
H          4.62940        2.69570       -1.69830
H          2.75760        0.77070        3.40820
H         -2.00360       -0.89750        3.12680
H         -1.15470        0.58400        2.69600
H         -0.16440        0.74010       -2.55440
H         -4.16950       -1.63820        1.57280
H         -5.45840       -0.38200       -0.16440
H         -0.91820        2.33900        0.78730
H         -5.22890        1.96000       -1.71690
H         -1.55710        4.04920       -0.87740
H         -3.68520        3.87260       -2.11540
H          2.34990       -4.47450       -0.43060
