52
656523
S         -1.69770        1.18840       -2.12110
S          4.71350       -2.97970       -0.43020
S          1.11300        3.30860        1.65160
O         -1.35230       -0.58630       -0.15290
O         -5.18200       -2.07560       -0.21800
O         -3.42480       -2.63950        2.05670
O         -4.64830        0.54030       -1.31070
O          0.54610       -1.23330        1.72280
O          1.04770        2.87440        0.07960
O          3.71770       -4.04570       -0.76410
O          2.65840        3.79790        1.82460
O          0.93700        2.11720        2.46090
O          0.26000        4.46640        1.84390
N         -0.17610        2.28440       -0.23850
C         -4.12410       -1.22560        0.22960
C         -2.99970       -2.07890        0.81750
C         -3.63670       -0.40730       -0.97030
C         -1.74850       -1.23040        1.05850
C         -2.33510        0.32870       -0.63720
C         -0.57300       -2.07950        1.53190
C         -0.22830        1.93960       -1.48630
C          0.88050        2.11350       -2.51220
C          1.73640        0.85280       -2.66890
C          2.38800        0.34260       -1.37880
C          3.17990       -0.96260       -1.50760
C          3.78070       -1.43410       -0.18940
C          5.16800       -3.17610        1.30860
H         -4.55430       -0.57460        1.00070
H         -2.77430       -2.90880        0.13590
H         -3.50430       -1.08200       -1.82650
H         -1.94130       -0.45980        1.81750
H         -2.52790        1.09830        0.12080
H         -0.29410       -2.82030        0.77570
H         -0.78780       -2.59770        2.47120
H         -5.87400       -1.50530       -0.59460
H         -4.23490       -3.14850        1.88270
H         -4.31720        1.05930       -2.06350
H          0.44000        2.37260       -3.48260
H          1.51790        2.95990       -2.23540
H          1.11540        0.04910       -3.08410
H          2.52020        1.05170       -3.40980
H          1.61330        0.18010       -0.62110
H          3.05190        1.12320       -0.98710
H          2.51680       -1.73900       -1.91030
H          3.97690       -0.82210       -2.24880
H          0.31420       -0.58520        2.40960
H          2.99450       -1.61710        0.54860
H          4.46900       -0.68150        0.20800
H          5.79240       -2.33560        1.62040
H          5.73300       -4.10490        1.41770
H          4.26880       -3.22540        1.92740
H          3.33740        3.19130        1.44630
