45
9548605
S          0.54280       -0.53230        2.24590
S         -2.10950        3.16940       -0.18860
O          1.36120       -0.34640       -0.29160
O          5.37380       -0.74120        0.50370
O          4.48320        0.23670       -2.10980
O          3.58170        0.12110        2.59340
O          0.30680        0.26260       -2.75290
O         -2.16440        1.74460        0.60560
O         -3.65120        3.36410       -0.68180
O         -1.28680        3.00320       -1.37230
O         -1.81990        4.21690        0.77280
N         -0.89030        1.32450        0.99310
C          4.15840       -0.02790        0.26730
C          3.63680       -0.36020       -1.13120
C          2.21250        0.16980       -1.31540
C          3.15420       -0.43480        1.35030
C          1.75040        0.07840        1.01450
C          1.62260       -0.25150       -2.65770
C         -0.93690        0.19300        1.62350
C         -2.18960       -0.61200        1.91440
C         -2.53780       -1.56180        0.79390
C         -3.36660       -1.13000       -0.22960
C         -2.02220       -2.84820        0.80860
C         -3.68830       -2.00740       -1.26510
C         -2.34390       -3.72540       -0.22700
C         -3.17690       -3.30510       -1.26390
H          4.40510        1.03860        0.34070
H          3.66420       -1.44640       -1.28430
H          3.16510       -1.52840        1.44790
H          2.19590        1.26710       -1.26390
H          1.73670        1.17430        1.06590
H          1.55150       -1.34150       -2.73030
H          2.20900        0.12080       -3.50300
H          5.67270       -0.51710        1.40170
H          5.38490       -0.09250       -1.95390
H          2.92710       -0.13480        3.26540
H          0.36400        1.23260       -2.71240
H         -2.06890       -1.17460        2.84940
H         -3.03070        0.06520        2.10700
H         -3.78220       -0.12740       -0.23990
H         -1.37550       -3.18830        1.61200
H         -4.33880       -1.68100       -2.07120
H         -1.94630       -4.73620       -0.22580
H         -3.42790       -3.98840       -2.06980
H         -4.33810        3.19850        0.00580
