46
9601115
S          0.74220       -0.13460        2.33530
S         -1.49500        3.52960       -0.53390
O          1.43470       -0.43790       -0.22810
O          5.39000       -1.30200        0.47740
O          4.50060       -0.58900       -2.22090
O          3.85750        0.10620        2.47490
O          0.33990       -0.03960       -2.71490
O         -1.70530        2.25740        0.46680
O         -4.01120       -3.74010       -1.44340
O         -3.01910        3.87680       -0.99690
O         -0.77180        3.07560       -1.70710
O         -1.00730        4.65000        0.24870
N         -0.48320        1.71400        0.86840
C          4.27580       -0.45860        0.17900
C          3.63490       -0.90760       -1.13470
C          2.29130       -0.20540       -1.34690
C          3.28680       -0.55300        1.34510
C          1.95260        0.10810        0.98480
C          1.57350       -0.72330       -2.58930
C         -0.65330        0.70410        1.66290
C         -1.98840        0.14300        2.11480
C         -2.52940       -0.89590        1.16250
C         -3.34620       -0.49840        0.11620
C         -2.19960       -2.22830        1.35300
C         -3.84650       -1.45880       -0.76310
C         -2.69980       -3.18860        0.47370
C         -3.52340       -2.80390       -0.58430
H          4.67400        0.55910        0.08270
H          3.50050       -1.99670       -1.12380
H          3.14900       -1.61080        1.60540
H          2.43220        0.87830       -1.46020
H          2.09630        1.18990        0.87150
H          1.34560       -1.78980       -2.49480
H          2.15800       -0.56690       -3.50080
H          5.76740       -0.99800        1.32070
H          5.35430       -1.02170       -2.04880
H          3.21210        0.04910        3.20010
H          0.53540        0.90680       -2.82260
H         -2.71360        0.95750        2.23270
H         -1.89600       -0.29100        3.11900
H         -3.61670        0.54250       -0.03020
H         -1.56240       -2.54060        2.17510
H         -4.48930       -1.15320       -1.58420
H         -2.44100       -4.23330        0.62410
H         -3.68750       -4.61600       -1.17140
H         -3.68280        3.91480       -0.26860
