45
5485207
S         -0.44200       -1.29790       -0.86990
S         -1.23350        2.94210       -0.78790
O          1.49590        0.17730        0.23060
O          4.63260       -1.96490       -1.33840
O          5.09210       -0.08220        0.85800
O          2.03260       -3.19470       -1.11650
O          1.74780        2.19650        2.07450
O         -0.99220        1.32770       -0.75050
O         -0.23520        3.42650       -1.98220
O         -0.73850        3.50680        0.45380
O         -2.59480        3.19200       -1.22350
N         -1.66580        0.73560        0.32100
C          3.66540       -1.61070       -0.34810
C          3.89350       -0.16410        0.09180
C          2.27340       -1.79670       -0.96020
C          2.72280        0.33080        0.94520
C          1.19440       -1.18750       -0.05920
C          2.86610        1.80810        1.29770
C         -1.47330       -0.54570        0.34930
C         -2.05080       -1.50720        1.37270
C         -3.57870       -1.44430        1.45360
C         -4.26490       -1.85490        0.14760
C         -5.75820       -1.85980        0.29820
C         -6.58880       -1.13300       -0.45770
H          3.82010       -2.30140        0.48920
H          4.02320        0.47360       -0.79090
H          2.25370       -1.34170       -1.95860
H          2.65160       -0.23590        1.88360
H          1.11400       -1.74830        0.88030
H          2.87300        2.42540        0.39310
H          3.77700        1.99830        1.87320
H          4.53660       -1.35250       -2.08770
H          4.98380       -0.64070        1.64660
H          2.03290       -3.60060       -0.23280
H         -1.63170       -1.22650        2.34640
H         -1.73470       -2.53670        1.17170
H          1.85410        3.14120        2.27870
H         -3.88880       -0.42630        1.72270
H         -3.90910       -2.10030        2.26890
H         -3.94280       -2.86430       -0.13500
H         -3.96440       -1.18360       -0.66520
H         -6.18230       -2.51000        1.05910
H         -7.66100       -1.18780       -0.30410
H         -6.21870       -0.47500       -1.23600
H         -0.23160        4.39590       -2.16200
