49
46173882
S         -0.22170       -1.81570        2.16580
S          3.91980       -1.78140       -0.91950
O         -0.99110       -0.66360       -0.12050
O         -4.96550       -1.68140        0.15260
O         -3.90860       -0.76460       -2.35110
O         -2.99970       -3.19300        1.63870
O          0.16720        0.50790       -2.30860
O          3.08930       -1.02370        0.26380
O         -0.30690        4.71890       -0.55120
O          5.11110       -0.72070       -1.25620
O          3.06860       -1.87270       -2.09100
O          4.53480       -2.96910       -0.35710
N          1.92640       -1.72010        0.60030
C         -3.20240       -0.66200       -1.11740
C         -3.60210       -1.84970       -0.24110
C         -1.69180       -0.65870       -1.36490
C         -2.72460       -1.94130        1.01140
C         -1.24000       -1.84110        0.64700
C         -1.23600        0.57840       -2.13270
C          1.26930       -1.11590        1.54010
C          1.66750        0.18740        2.20680
C          1.14150        1.39630        1.47130
C          1.90500        1.98790        0.46490
C         -0.10880        1.92150        1.79810
C          1.41840        3.10460       -0.21460
C         -0.59540        3.03820        1.11870
C          0.16810        3.62980        0.11240
C         -1.59250        5.20390       -0.16620
H         -3.56440       -2.78500       -0.81250
H         -3.51420        0.27340       -0.63690
H         -1.38630       -1.54400       -1.93910
H         -3.01250       -1.14700        1.71160
H         -0.91720       -2.71960        0.07500
H         -1.46050        1.49090       -1.57180
H         -1.71160        0.63460       -3.11640
H         -5.03200       -0.85930        0.66760
H         -3.60770       -1.57110       -2.80340
H         -2.71390       -3.90080        1.03620
H          0.43760        1.31140       -2.78480
H          1.31020        0.20640        3.24450
H          2.75960        0.24610        2.28830
H          2.88450        1.59890        0.20310
H         -0.71330        1.47150        2.58100
H          2.01800        3.56160       -0.99700
H         -1.57410        3.39360        1.42240
H         -2.37590        4.46300       -0.35910
H         -1.59690        5.55220        0.87220
H         -1.81210        6.07240       -0.79580
H          5.73620       -0.99930       -1.96590
